c CNF generator v0.9
p cnf 10 42
8 -9 -4 0
-3 9 8 0
-9 2 3 0
-10 5 -3 0
9 -10 -10 0
-6 7 10 0
6 -3 -5 0
-1 7 10 0
-4 -9 7 0
-4 -1 -3 0
-2 -9 -5 0
-4 -4 -2 0
8 1 8 0
-3 5 -9 0
1 2 5 0
-4 -4 8 0
-10 -9 -3 0
8 3 6 0
5 -8 5 0
4 -7 1 0
5 8 6 0
-8 -1 -7 0
4 -8 -10 0
-5 -7 -10 0
-10 -10 8 0
8 9 -5 0
10 -4 3 0
4 -10 -8 0
-3 10 -8 0
-8 6 7 0
1 4 -10 0
9 -8 -3 0
4 -2 3 0
-10 -1 -7 0
6 1 -3 0
5 -8 -8 0
-2 -10 6 0
-3 2 3 0
-9 5 -10 0
2 -6 -10 0
-5 -8 2 0
-8 1 8 0
